NAME: ACTUAL_TOURS/amz2265
TYPE: TOUR
COMMENT: RouteID_ef8ab343-0786-4627-a34d-508359bb4084
DIMENSION: 166
TOUR_SECTION
14
64
13
91
136
128
70
138
142
131
35
95
24
12
164
146
127
156
151
50
154
62
143
98
47
11
28
90
157
85
108
130
25
65
52
132
110
74
48
46
100
144
73
148
124
60
129
76
20
112
40
121
120
54
149
84
126
134
81
5
93
17
88
37
99
15
4
33
21
19
97
7
59
57
133
34
77
150
79
31
29
135
107
16
106
147
51
145
53
153
63
115
158
141
30
18
92
67
78
104
89
44
23
27
39
113
155
160
66
159
94
86
80
165
41
116
61
161
55
119
75
42
68
10
152
6
49
166
36
140
101
123
38
109
58
9
72
71
125
103
139
114
82
122
105
22
3
8
26
163
45
111
137
2
43
118
162
87
32
56
102
1
83
117
69
96
-1
EOF
